&CONTROL
   calculation = 'vc-relax',                
   prefix='Si63B',                      
   pseudo_dir = './',
/
&SYSTEM
    ibrav=  1,                          
    celldm(1) = 20.52242,
    nat=  64,                          
    ntyp= 2,
    ecutwfc =24,
    occupations = 'smearing',
    smearing = 'gaussian',
    degauss = 0.01,
/
&ELECTRONS
    mixing_beta = 0.7,
/
&IONS
    ion_dynamics='bfgs',
/
&CELL
    cell_dynamics='bfgs',
/
ATOMIC_SPECIES
 Si  28.086  Si.pbe-rrkj.UPF
 B   10.81   B.pbe-n-van_ak.UPF
ATOMIC_POSITIONS (alat)                     
Si   0.0000000000000000     0.0000000000000000     0.0000000000000000
Si   0.0000000000000000     0.0000000000000000     0.5000000000000000
Si   0.0000000000000000     0.5000000000000000     0.0000000000000000
Si   0.0000000000000000     0.5000000000000000     0.5000000000000000     
Si   0.5000000000000000     0.0000000000000000     0.0000000000000000     
Si   0.5000000000000000     0.0000000000000000     0.5000000000000000     
Si   0.5000000000000000     0.5000000000000000     0.0000000000000000     
Si   0.2500000000000000     0.2500000000000000     0.0000000000000000     
Si   0.2500000000000000     0.2500000000000000     0.5000000000000000     
Si   0.2500000000000000     0.7500000000000000     0.0000000000000000     
Si   0.2500000000000000     0.7500000000000000     0.5000000000000000     
Si   0.7500000000000000     0.2500000000000000     0.0000000000000000     
Si   0.7500000000000000     0.2500000000000000     0.5000000000000000     
Si   0.7500000000000000     0.7500000000000000     0.0000000000000000     
Si   0.7500000000000000     0.7500000000000000     0.5000000000000000     
Si   0.2500000000000000     0.0000000000000000     0.2500000000000000     
Si   0.2500000000000000     0.0000000000000000     0.7500000000000000     
Si   0.2500000000000000     0.5000000000000000     0.2500000000000000     
Si   0.2500000000000000     0.5000000000000000     0.7500000000000000     
Si   0.7500000000000000     0.0000000000000000     0.2500000000000000     
Si   0.7500000000000000     0.0000000000000000     0.7500000000000000     
Si   0.7500000000000000     0.5000000000000000     0.2500000000000000     
Si   0.7500000000000000     0.5000000000000000     0.7500000000000000     
Si   0.0000000000000000     0.2500000000000000     0.2500000000000000     
Si   0.0000000000000000     0.2500000000000000     0.7500000000000000     
Si   0.0000000000000000     0.7500000000000000     0.2500000000000000     
Si   0.0000000000000000     0.7500000000000000     0.7500000000000000     
Si   0.5000000000000000     0.2500000000000000     0.2500000000000000     
Si   0.5000000000000000     0.2500000000000000     0.7500000000000000     
Si   0.5000000000000000     0.7500000000000000     0.2500000000000000     
Si   0.5000000000000000     0.7500000000000000     0.7500000000000000     
Si   0.1250000000000000     0.1250000000000000     0.1250000000000000     
Si   0.1250000000000000     0.1250000000000000     0.6250000000000000     
Si   0.1250000000000000     0.6250000000000000     0.1250000000000000     
Si   0.1250000000000000     0.6250000000000000     0.6250000000000000     
Si   0.6250000000000000     0.1250000000000000     0.1250000000000000     
Si   0.6250000000000000     0.1250000000000000     0.6250000000000000     
Si   0.6250000000000000     0.6250000000000000     0.1250000000000000     
Si   0.6250000000000000     0.6250000000000000     0.6250000000000000     
Si   0.3750000000000000     0.3750000000000000     0.1250000000000000     
Si   0.3750000000000000     0.3750000000000000     0.6250000000000000     
Si   0.3750000000000000     0.8750000000000000     0.1250000000000000     
Si   0.3750000000000000     0.8750000000000000     0.6250000000000000     
Si   0.8750000000000000     0.3750000000000000     0.1250000000000000     
Si   0.8750000000000000     0.3750000000000000     0.6250000000000000     
Si   0.8750000000000000     0.8750000000000000     0.1250000000000000     
Si   0.8750000000000000     0.8750000000000000     0.6250000000000000     
Si   0.3750000000000000     0.1250000000000000     0.3750000000000000     
Si   0.3750000000000000     0.1250000000000000     0.8750000000000000     
Si   0.3750000000000000     0.6250000000000000     0.3750000000000000     
Si   0.3750000000000000     0.6250000000000000     0.8750000000000000     
Si   0.8750000000000000     0.1250000000000000     0.3750000000000000     
Si   0.8750000000000000     0.1250000000000000     0.8750000000000000     
Si   0.8750000000000000     0.6250000000000000     0.3750000000000000     
Si   0.8750000000000000     0.6250000000000000     0.8750000000000000     
Si   0.1250000000000000     0.3750000000000000     0.3750000000000000     
Si   0.1250000000000000     0.3750000000000000     0.8750000000000000     
Si   0.1250000000000000     0.8750000000000000     0.3750000000000000     
Si   0.1250000000000000     0.8750000000000000     0.8750000000000000     
Si   0.6250000000000000     0.3750000000000000     0.3750000000000000     
Si   0.6250000000000000     0.3750000000000000     0.8750000000000000     
Si   0.6250000000000000     0.8750000000000000     0.3750000000000000     
Si   0.6250000000000000     0.8750000000000000     0.8750000000000000     
B    0.5000000000000000     0.5000000000000000     0.5000000000000000
K_POINTS automatic
3 3 3 1 1 1
