&CONTROL
   calculation = 'scf',                
   prefix='Si2',                      
   pseudo_dir = './',
/
&SYSTEM
    ibrav=  2,                          
    celldm(1) = 10.26121,              
    nat=  2,                          
    ntyp= 1,
    ecutwfc =24,
/
&ELECTRONS
    mixing_beta = 0.7,
/
ATOMIC_SPECIES
 Si  28.086  Si.pbe-rrkj.UPF
ATOMIC_POSITIONS (alat)                     
 Si 0.00 0.00 0.00
 Si 0.25 0.25 0.25
K_POINTS automatic
6 6 6 1 1 1
